p cnf 130 446
4 2 0
4 -3 0
-2 3 -4 0
-5 1 0
-5 4 0
-1 -4 5 0
6 4 0
6 -5 0
-4 5 -6 0
7 1 0
7 -6 0
-1 6 -7 0
-8 4 -9 0
8 -4 -9 0
-8 -4 9 0
8 4 9 0
9 -3 -10 0
-9 3 -10 0
9 3 10 0
-9 -3 10 0
-11 10 0
-11 -2 0
-10 2 11 0
-7 11 -12 0
7 -11 -12 0
-7 -11 12 0
7 11 12 0
14 -13 0
14 -9 0
13 9 -14 0
-15 -6 0
-15 14 0
6 -14 15 0
18 -16 0
18 17 0
16 -17 -18 0
-8 18 -19 0
8 -18 -19 0
-8 -18 19 0
8 18 19 0
19 -20 -21 0
-19 20 -21 0
19 20 21 0
-19 -20 21 0
-23 22 0
-23 2 0
-22 -2 23 0
-24 23 0
-24 -16 0
-23 16 24 0
-24 14 -25 0
24 -14 -25 0
-24 -14 25 0
24 14 25 0
13 25 -26 0
-13 -25 -26 0
13 -25 26 0
-13 25 26 0
-21 26 -27 0
21 -26 -27 0
-21 -26 27 0
21 26 27 0
28 15 0
28 27 0
-15 -27 -28 0
-29 -16 0
-29 13 0
16 -13 29 0
-31 -30 0
-31 -20 0
30 20 31 0
-32 31 0
-32 23 0
-31 -23 32 0
33 -32 0
33 -25 0
32 25 -33 0
-34 29 0
-34 -33 0
-29 33 34 0
-37 -35 0
-37 36 0
35 -36 37 0
39 17 0
39 -38 0
-17 38 -39 0
39 22 -40 0
-39 -22 -40 0
39 -22 40 0
-39 22 40 0
-41 -40 0
-41 35 0
40 -35 41 0
-41 42 -43 0
41 -42 -43 0
-41 -42 43 0
41 42 43 0
44 37 0
44 -43 0
-37 43 -44 0
-45 -18 0
-45 44 0
18 -44 45 0
-45 -37 -46 0
45 37 -46 0
-45 37 46 0
45 -37 46 0
47 18 0
47 -42 0
-18 42 -47 0
-47 1 -48 0
47 -1 -48 0
-47 -1 48 0
47 1 48 0
48 -1 -49 0
-48 1 -49 0
48 1 49 0
-48 -1 49 0
-46 -49 -50 0
46 49 -50 0
-46 49 50 0
46 -49 50 0
-51 -34 0
-51 50 0
34 -50 51 0
-28 -51 -52 0
28 51 -52 0
-28 51 52 0
28 -51 52 0
12 -52 -53 0
-12 52 -53 0
12 52 53 0
-12 -52 53 0
-41 38 -54 0
41 -38 -54 0
-41 -38 54 0
41 38 54 0
-18 -47 -55 0
18 47 -55 0
-18 47 55 0
18 -47 55 0
56 -55 0
56 8 0
55 -8 -56 0
-3 56 -57 0
3 -56 -57 0
-3 -56 57 0
3 56 57 0
-58 -54 0
-58 57 0
54 -57 58 0
-3 -1 -59 0
3 1 -59 0
-3 1 59 0
3 -1 59 0
40 -1 -60 0
-40 1 -60 0
40 1 60 0
-40 -1 60 0
-61 -59 0
-61 60 0
59 -60 61 0
-22 -61 -62 0
22 61 -62 0
-22 61 62 0
22 -61 62 0
-63 58 0
-63 62 0
-58 -62 63 0
-53 63 -64 0
53 -63 -64 0
-53 -63 64 0
53 63 64 0
-65 66 0
65 66 0
67 -41 0
67 38 0
41 -38 -67 0
-68 -66 0
-68 67 0
66 -67 68 0
-69 4 0
-69 -4 0
-71 -70 0
-71 -17 0
70 17 71 0
-72 59 0
-72 -71 0
-59 71 72 0
73 72 0
73 72 0
-72 -73 0
69 73 -74 0
-69 -73 -74 0
69 -73 74 0
-69 73 74 0
-43 -59 -75 0
43 59 -75 0
-43 59 75 0
43 -59 75 0
4 36 -76 0
-4 -36 -76 0
4 -36 76 0
-4 36 76 0
-77 -75 0
-77 76 0
75 -76 77 0
-78 -25 0
-78 -77 0
25 77 78 0
79 -16 0
79 -77 0
16 77 -79 0
-80 -44 0
-80 -41 0
44 41 80 0
81 -79 0
81 -80 0
79 80 -81 0
78 81 -82 0
-78 -81 -82 0
78 -81 82 0
-78 81 82 0
-83 -74 0
-83 -82 0
74 82 83 0
84 68 0
84 83 0
-68 -83 -84 0
70 -72 -85 0
-70 72 -85 0
70 72 85 0
-70 -72 85 0
86 -84 0
86 -85 0
84 85 -86 0
87 47 0
87 -39 0
-47 39 -87 0
-88 -23 0
-88 -38 0
23 38 88 0
89 -87 0
89 -88 0
87 88 -89 0
-90 -39 0
-90 -16 0
39 16 90 0
91 90 0
91 31 0
-90 -31 -91 0
-91 47 -92 0
91 -47 -92 0
-91 -47 92 0
91 47 92 0
93 89 0
93 -92 0
-89 92 -93 0
44 -40 -94 0
-44 40 -94 0
44 40 94 0
-44 -40 94 0
-95 -10 0
-95 80 0
10 -80 95 0
-95 59 -96 0
95 -59 -96 0
-95 -59 96 0
95 59 96 0
-97 -20 0
-97 -20 0
20 97 0
98 -56 0
98 -24 0
56 24 -98 0
49 -98 -99 0
-49 98 -99 0
49 98 99 0
-49 -98 99 0
-100 97 0
-100 -99 0
-97 99 100 0
-96 -100 -101 0
96 100 -101 0
-96 100 101 0
96 -100 101 0
-94 101 -102 0
94 -101 -102 0
-94 -101 102 0
94 101 102 0
103 93 0
103 102 0
-93 -102 -103 0
-86 103 -104 0
86 -103 -104 0
-86 -103 104 0
86 103 104 0
64 -104 -105 0
-64 104 -105 0
64 104 105 0
-64 -104 105 0
-106 -48 0
-106 -48 0
48 106 0
-107 -70 0
-107 55 0
70 -55 107 0
108 90 0
108 -107 0
-90 107 -108 0
106 -108 -109 0
-106 108 -109 0
106 108 109 0
-106 -108 109 0
95 1 -110 0
-95 -1 -110 0
95 -1 110 0
-95 1 110 0
-111 109 0
-111 -110 0
-109 110 111 0
-112 25 0
-112 13 0
-25 -13 112 0
113 -55 0
113 -55 0
55 -113 0
-114 113 0
-114 -18 0
-113 18 114 0
-42 24 -115 0
42 -24 -115 0
-42 -24 115 0
42 24 115 0
-114 115 -116 0
114 -115 -116 0
-114 -115 116 0
114 115 116 0
71 -1 -117 0
-71 1 -117 0
71 1 117 0
-71 -1 117 0
-118 116 0
-118 -117 0
-116 117 118 0
-119 -98 0
-119 75 0
98 -75 119 0
118 119 -120 0
-118 -119 -120 0
118 -119 120 0
-118 119 120 0
47 6 -121 0
-47 -6 -121 0
47 -6 121 0
-47 6 121 0
-122 -36 0
-122 -37 0
36 37 122 0
123 -20 0
123 25 0
20 -25 -123 0
123 -75 -124 0
-123 75 -124 0
123 75 124 0
-123 -75 124 0
-122 124 -125 0
122 -124 -125 0
-122 -124 125 0
122 124 125 0
-126 -121 0
-126 125 0
121 -125 126 0
120 126 -127 0
-120 -126 -127 0
120 -126 127 0
-120 126 127 0
-128 -112 0
-128 127 0
112 -127 128 0
-111 -128 -129 0
111 128 -129 0
-111 128 129 0
111 -128 129 0
130 -105 0
130 -129 0
105 129 -130 0
56 11 113 69 -66 0
-31 -32 82 61 0
-85 -125 -61 0
-118 -110 0
84 14 -36 0
-4 113 3 -72 -122 -123 0
48 17 67 0
-108 73 32 98 5 19 0
33 -87 76 -29 0
60 95 -101 0
-111 -103 0
-41 63 0
110 -42 104 91 0
60 4 -42 114 0
65 47 20 68 35 0
-70 -96 125 67 0
-121 -100 119 0
65 -49 0
-23 -49 0
68 3 35 -67 0
124 -43 54 9 -128 0
-124 62 -81 0
105 62 40 -94 107 -36 0
107 69 -56 41 0
61 -69 102 -103 0
-56 -87 -38 6 92 0
-109 115 107 42 0
-11 42 -78 0
-23 44 -72 -111 109 0
-75 46 0
101 -57 24 0
-80 84 -38 121 -112 0
10 37 0
-95 -6 -83 -87 -1 50 0
48 -17 110 -126 -64 -27 0
93 -32 -9 -43 -120 0
-5 117 85 81 12 -30 0
-66 -32 36 -92 0
26 127 -63 -78 -75 -50 0
-130 -27 1 10 -22 0
-115 -20 -59 -56 127 0
128 -76 95 -101 -89 0
-4 71 67 0
-18 91 33 73 0
72 21 0
-52 47 115 0
-64 122 10 0
-90 -76 5 -50 0
-70 88 -84 -57 0
81 -70 4 47 6 0
-121 -39 -49 -55 42 0
35 -22 -119 74 0
76 -42 0
-51 114 -24 0
60 -75 95 62 -2 0
83 47 27 -52 0
-27 -103 66 0
-1 -122 35 -105 -104 -9 0
130 0
